c colouring generated by benchmark framework
p edge 206 3540
v 1 6
v 2 23
v 3 29
v 4 25
v 5 7
v 6 2
v 7 20
v 8 9
v 9 17
v 10 24
v 11 0
v 12 21
v 13 14
v 14 13
v 15 1
v 16 5
v 17 10
v 18 29
v 19 13
v 20 9
v 21 4
v 22 3
v 23 2
v 24 30
v 25 1
v 26 14
v 27 0
v 28 7
v 29 24
v 30 6
v 31 5
v 32 23
v 33 19
v 34 14
v 35 17
v 36 18
v 37 18
v 38 2
v 39 17
v 40 5
v 41 8
v 42 9
v 43 4
v 44 4
v 45 12
v 46 6
v 47 3
v 48 16
v 49 18
v 50 23
v 51 27
v 52 30
v 53 6
v 54 3
v 55 1
v 56 22
v 57 16
v 58 9
v 59 11
v 60 15
v 61 11
v 62 8
v 63 22
v 64 25
v 65 8
v 66 12
v 67 8
v 68 12
v 69 11
v 70 8
v 71 8
v 72 8
v 73 26
v 74 3
v 75 16
v 76 30
v 77 3
v 78 22
v 79 15
v 80 3
v 81 16
v 82 11
v 83 17
v 84 18
v 85 3
v 86 5
v 87 4
v 88 16
v 89 11
v 90 18
v 91 4
v 92 18
v 93 4
v 94 20
v 95 8
v 96 29
v 97 28
v 98 16
v 99 1
v 100 11
v 101 5
v 102 11
v 103 22
v 104 11
v 105 11
v 106 11
v 107 2
v 108 19
v 109 16
v 110 29
v 111 20
v 112 12
v 113 15
v 114 18
v 115 15
v 116 22
v 117 26
v 118 22
v 119 0
v 120 22
v 121 15
v 122 22
v 123 22
v 124 3
v 125 3
v 126 3
v 127 27
v 128 15
v 129 11
v 130 8
v 131 3
v 132 4
v 133 28
v 134 12
v 135 16
v 136 19
v 137 25
v 138 18
v 139 16
v 140 15
v 141 22
v 142 22
v 143 22
v 144 22
v 145 30
v 146 21
v 147 22
v 148 28
v 149 11
v 150 11
v 151 11
v 152 25
v 153 30
v 154 9
v 155 25
v 156 9
v 157 22
v 158 26
v 159 22
v 160 22
v 161 16
v 162 19
v 163 19
v 164 12
v 165 19
v 166 17
v 167 19
v 168 22
v 169 22
v 170 26
v 171 26
v 172 26
v 173 28
v 174 28
v 175 26
v 176 22
v 177 22
v 178 12
v 179 12
v 180 12
v 181 12
v 182 11
v 183 28
v 184 3
v 185 22
v 186 19
v 187 26
v 188 16
v 189 28
v 190 30
v 191 30
v 192 28
v 193 28
v 194 30
v 195 26
v 196 22
v 197 22
v 198 24
v 199 28
v 200 19
v 201 19
v 202 26
v 203 16
v 204 4
v 205 15
v 206 11
